<number of tasks>
100

<cycle time>
1000

<order strength>
0.197


<task times>
1 425
2 68
3 184
4 232
5 43
6 43
7 549
8 84
9 218
10 294
11 220
12 31
13 178
14 590
15 51
16 158
17 128
18 427
19 140
20 169
21 97
22 97
23 81
24 203
25 369
26 107
27 147
28 212
29 45
30 235
31 502
32 309
33 174
34 325
35 280
36 496
37 334
38 328
39 268
40 576
41 34
42 161
43 376
44 46
45 101
46 434
47 288
48 47
49 135
50 542
51 144
52 110
53 330
54 496
55 567
56 504
57 323
58 125
59 216
60 203
61 44
62 242
63 325
64 84
65 169
66 116
67 188
68 542
69 452
70 404
71 513
72 92
73 165
74 193
75 142
76 186
77 67
78 130
79 28
80 281
81 42
82 70
83 233
84 128
85 99
86 236
87 214
88 27
89 36
90 196
91 480
92 32
93 134
94 38
95 190
96 51
97 378
98 59
99 114
100 84

<precedence relations>
1,5
1,6
1,7
1,8
2,23
2,38
3,9
4,38
5,10
6,11
7,13
8,12
8,15
8,16
8,94
9,14
9,17
10,19
11,18
12,20
13,23
14,21
15,22
16,25
17,24
18,26
19,27
20,29
21,30
22,30
23,28
24,30
24,31
24,100
25,32
26,33
27,34
28,35
29,36
30,37
30,38
30,40
30,61
31,41
32,39
32,80
33,45
34,42
35,46
36,47
37,44
38,43
38,99
39,49
40,67
41,48
42,51
43,50
44,55
45,58
45,61
46,52
47,57
48,53
48,54
48,56
48,60
49,54
49,59
50,68
51,66
52,62
53,63
54,64
54,69
54,71
55,69
56,65
57,70
61,67
61,89
62,73
63,74
64,75
65,78
66,76
67,72
67,79
67,82
67,95
68,80
69,77
70,81
71,99
72,83
73,84
74,89
75,85
76,86
77,87
78,88
79,91
81,90
81,92
83,93
84,94
85,95
86,94
87,96
88,97
90,98
91,98
92,99
92,100

<end>
